TCS_Benchmarks/redos_fix/regexlib2_output_distinct_784_783_54_0.txt
([\\\/%0-9A-Z.a-z_]*)([\\a%&mA-Z.a-zp\/;0-9=_]*)
([\\\/%0-9A-Z.a-z_]*)(\?*)([\\a%&mA-Z.a-zp\/;0-9=_]*)